column=7;
row=7;
max=5;
left=[3, 0, 4, 1, 5, 4, 0];
right=[0, 0, 5, 3, 1, 2, 4];
top=[3, 5, 3, 0, 2, 5, 0];
bottom=[0, 0, 5, 5, 3, 0, 2];
Board=[|0,0,3,1,2,0,4|0,5,0,0,4,1,0|0,4,2,0,1,0,5|1,2,0,4,5,0,3|5,3,4,0,0,2,1|4,0,1,5,0,3,0|0,1,5,0,3,4,0|]